\ This file has been generated by DOcplex
\ ENCODING=ISO-8859-1
\Problem name: random_problem.lp

Minimize
 obj: 7 x0 - x1 + 4 x2 + x3 + 3 x4 - 5 x5 - 6 x6 - 10 x7 + 8 x8 + 10 x9 - 6 x10
      - 6 x11 + 2 x12 - 4 x13 + 2 x14 - 8 x15 - 10 x17 - 5 x18 + 4 x19 + 2 x20
      - 6 x21 - 8 x22 + 5 x23 + 7 x24 + 5 x25 + 2 x26 - 5 x27 + 10 x28 + 2 x29
      + 5 x30 - 3 x31 - x32 + 10 x33 + 4 x34 - 2 x35 - 8 x36 - 3 x37 - x38
      - 3 x39 - 8 x40 + 8 x41 + 3 x42 + 9 x43 - 5 x44 + 5 x45 - 4 x47 + 3 x48
      - 2 x49 - 8 x50 - 7 x51 - 5 x52 + 5 x53 - x54 - 8 x55 - 3 x56 + 7 x57
      - 4 x58 + 5 x59 + 5 x60 + 4 x61 + 9 x62 + 8 x63 - 4 x65 + x66 + 7 x67
      + 2 x68 + 8 x69 + 2 x70 - 5 x71 + x72 + 6 x73 - 8 x74 + [ 8 x0*x1
      - 20 x0*x13 - 10 x0*x15 - 20 x0*x19 - 10 x0*x33 + 6 x0*x45 - 4 x0*x47
      + 10 x0*x48 - 20 x0*x58 - 16 x0*x62 - 18 x1*x5 - 18 x1*x9 - 12 x1*x25
      - 2 x1*x37 - 2 x1*x44 - 18 x1*x57 + 2 x1*x62 + 20 x1*x64 - 12 x1*x67
      - 16 x2*x4 + 6 x2*x7 - 4 x2*x10 + 8 x2*x28 - 18 x2*x36 + 20 x2*x39
      - 2 x2*x50 + 6 x2*x57 + 20 x2*x69 - 8 x2*x74 + 2 x3*x7 - 4 x3*x8
      + 14 x3*x9 - 2 x3*x10 + 2 x3*x12 + 18 x3*x22 + 6 x3*x33 - 14 x3*x43
      - 20 x3*x65 - 14 x3*x71 + 20 x4*x12 + 4 x4*x19 - 8 x4*x29 + 4 x4*x40
      + 20 x4*x48 + 2 x4*x55 - 18 x4*x56 - 4 x4*x57 + 16 x4*x65 + 10 x5*x12
      - 2 x5*x18 - 2 x5*x22 + 16 x5*x24 + 18 x5*x26 - 16 x5*x32 + 4 x5*x60
      + 2 x5*x62 + 20 x5*x74 - 8 x6*x23 + 12 x6*x36 + 18 x6*x42 - 12 x6*x56
      + 6 x6*x60 - 16 x6*x63 + 16 x6*x64 - 10 x6*x70 + 6 x6*x72 - 12 x6*x74
      + 4 x7*x9 - 8 x7*x13 + 4 x7*x25 - 10 x7*x32 + 18 x7*x39 + 8 x7*x48
      - 20 x7*x53 + 6 x7*x63 - 20 x8*x21 - 14 x8*x30 - 14 x8*x46 + 12 x8*x54
      - 12 x8*x56 - 2 x8*x65 - 4 x8*x68 - 4 x8*x69 - 12 x8*x71 + 6 x9*x13
      - 2 x9*x35 + 10 x9*x39 - 16 x9*x49 + 10 x9*x50 + 10 x9*x55 - 18 x9*x68
      - 8 x10*x14 - 12 x10*x23 - 12 x10*x26 - 20 x10*x53 - 16 x10*x54
      - 4 x10*x59 - 8 x10*x62 + 10 x10*x73 + 20 x11*x13 - 10 x11*x17
      - 10 x11*x27 - 16 x11*x28 - 12 x11*x33 - 20 x11*x34 - 20 x11*x35
      + 6 x11*x39 - 6 x11*x64 - 18 x11*x74 + 20 x12*x13 + 20 x12*x18
      - 10 x12*x24 - 20 x12*x27 - 12 x12*x42 + 16 x12*x49 - 12 x12*x64
      + 12 x13*x31 - 10 x13*x40 + 4 x13*x41 - 10 x13*x69 - 2 x13*x71 - 8 x14*x22
      - 2 x14*x33 + 4 x14*x35 - 2 x14*x38 + 18 x14*x49 + 4 x14*x58 + 14 x14*x61
      - 6 x14*x62 - 16 x14*x70 + 14 x15*x19 - 4 x15*x27 + 20 x15*x30
      + 20 x15*x41 + 4 x15*x57 + 6 x15*x61 + 10 x15*x65 + 4 x15*x67 + 18 x15*x69
      - 6 x16*x17 - 12 x16*x19 + 6 x16*x25 + 14 x16*x32 + 12 x16*x41
      + 16 x16*x43 + 2 x16*x48 - 16 x16*x49 + 20 x16*x59 - 8 x16*x73 - 6 x17*x22
      - 2 x17*x37 + 6 x17*x38 - 2 x17*x44 - 14 x17*x48 + 16 x17*x50 - 6 x17*x70
      + 14 x17*x73 + 12 x18*x20 + 14 x18*x22 - 14 x18*x39 + 2 x18*x43
      + 8 x18*x46 - 6 x18*x47 + 4 x18*x65 + 10 x18*x72 - 8 x19*x30 + 16 x19*x36
      + 10 x19*x59 - 20 x19*x66 + 18 x19*x67 - 2 x19*x70 + 18 x20*x24
      - 10 x20*x26 + 20 x20*x28 + 8 x20*x43 + 16 x20*x47 + 4 x20*x48
      - 12 x20*x49 - 10 x20*x56 + 12 x20*x59 + 8 x21*x26 - 14 x21*x29
      + 4 x21*x33 + 14 x21*x39 + 16 x21*x42 - 16 x21*x45 - 4 x21*x54
      - 12 x21*x56 + 8 x21*x64 - 20 x22*x33 + 10 x22*x44 - 12 x22*x60
      - 16 x22*x61 + 16 x22*x74 - 16 x23*x27 + 4 x23*x40 + 14 x23*x43
      - 20 x23*x49 - 12 x23*x51 - 6 x23*x52 + 14 x23*x60 + 8 x23*x63 + 2 x24*x26
      + 10 x24*x31 + 12 x24*x35 - 4 x24*x37 - 16 x24*x41 - 20 x24*x62
      - 8 x24*x73 - 4 x25*x28 - 14 x25*x36 - 2 x25*x44 + 18 x25*x53 + 12 x25*x56
      - 20 x25*x67 + 14 x25*x72 + 18 x26*x32 - 10 x26*x51 - 6 x26*x55
      + 20 x26*x71 + 6 x26*x72 + 14 x27*x30 + 2 x27*x40 - 18 x27*x45 - 8 x27*x50
      + 20 x27*x53 - 16 x27*x70 + 10 x28*x34 + 2 x28*x42 + 18 x28*x45
      - 10 x28*x61 - 8 x28*x66 - 16 x28*x73 - 12 x29*x31 + 8 x29*x34
      - 20 x29*x45 + 18 x29*x47 + 12 x29*x54 + 12 x29*x57 + 4 x29*x63
      - 6 x29*x65 - 6 x30*x39 + 4 x30*x40 + 8 x30*x45 - 12 x30*x49 + 18 x30*x67
      - 18 x30*x72 - 14 x31*x35 + 4 x31*x36 + 4 x31*x50 - 2 x31*x51 + 20 x31*x54
      - 14 x31*x63 + 6 x31*x67 - 10 x32*x35 - 10 x32*x42 + 14 x32*x49
      - 16 x32*x52 + 2 x32*x61 + 2 x32*x65 + 18 x33*x46 - 10 x33*x60
      + 16 x33*x64 + 14 x33*x71 - 14 x34*x36 - 6 x34*x38 + 14 x34*x40
      + 8 x34*x53 - 6 x34*x56 - 10 x34*x64 - 4 x34*x73 + 12 x35*x55 + 16 x35*x57
      - 16 x35*x67 + 12 x35*x69 - 6 x36*x50 + 18 x36*x68 - 20 x36*x71
      - 8 x36*x72 + 12 x37*x40 - 4 x37*x43 + 10 x37*x48 - 8 x37*x60 + 20 x37*x62
      - 8 x37*x63 - 18 x37*x74 - 14 x38*x50 - 4 x38*x51 + 8 x38*x53 + 8 x38*x58
      + 20 x38*x59 + 10 x38*x63 - 2 x38*x68 - 16 x39*x40 + 6 x39*x54
      - 12 x39*x55 + 8 x40*x57 - 14 x40*x62 + 2 x41*x48 - 8 x41*x52 + 16 x41*x60
      - 2 x41*x63 - 4 x41*x66 + 14 x41*x72 - 6 x42*x46 + 8 x42*x49 - 6 x42*x60
      - 12 x42*x67 + 6 x42*x73 + 18 x43*x46 + 4 x43*x47 - 10 x43*x66 - 4 x43*x73
      - 14 x44*x53 + 4 x44*x61 + 12 x44*x70 + 8 x44*x71 - 12 x44*x72
      - 12 x44*x73 + 10 x45*x46 + 20 x45*x55 - 20 x45*x57 - 6 x45*x59
      - 8 x46*x55 - 14 x46*x60 + 20 x46*x66 + 8 x46*x69 + 2 x47*x51 - 6 x47*x56
      - 12 x47*x58 - 10 x47*x61 - 4 x47*x63 - 4 x48*x55 - 14 x48*x62 - 8 x49*x73
      + 8 x50*x52 + 20 x50*x64 - 6 x50*x68 - 20 x51*x60 + 6 x51*x61 + 20 x51*x66
      - 8 x51*x72 + 8 x51*x74 - 10 x52*x61 - 8 x52*x63 - 2 x52*x66 + 8 x52*x67
      + 10 x52*x68 + 6 x52*x71 + 20 x53*x54 + 2 x53*x58 + 16 x53*x74
      - 18 x54*x58 - 8 x54*x65 + 8 x54*x68 - 2 x55*x59 - 18 x55*x64 - 2 x56*x69
      + 12 x56*x71 + 10 x57*x66 - 20 x57*x68 - 4 x58*x59 + 16 x58*x65
      + 16 x58*x67 - 12 x58*x68 - 14 x59*x66 + 20 x59*x69 - 12 x61*x66
      - 10 x62*x74 + 6 x64*x69 - 2 x65*x70 - 14 x68*x71 - 4 x69*x72 + 2 x70*x74
      ]/2
Subject To
 c0: x1 - x18 - x26 + x39 - 2 x51 + x52 + 2 x56 + x61 - 2 x65 + x74 = -1
 c1: x1 - x13 - x26 + 2 x28 + 2 x42 + 2 x48 + x52 + x61 + x70 + x73 = 0
 c2: - 2 x10 + 2 x17 + x35 - 2 x41 + 2 x49 - x50 - x53 - 2 x56 + 2 x66 - 2 x67
      = 1
 c3: - x0 + x5 - x8 - 2 x11 - x28 + x46 + x54 - 2 x59 + x68 + x71 = 1
 c4: - x6 - 2 x11 + x12 + x24 - 2 x32 + 2 x57 - 2 x60 - 2 x61 + x66 - 2 x70 = 1
 c5: 2 x9 + 2 x16 - x23 + x26 + x53 + 2 x56 - 2 x58 - x63 - x68 + x74 = 0
 c6: x3 - x13 - x22 + x24 - x29 + x30 + 2 x34 - x42 + x67 - x70 = 1
 c7: 2 x3 + x12 + 2 x24 - x28 - 2 x29 - 2 x38 - x39 + 2 x51 - x60 + x73 = -1
 c8: x7 + 2 x28 - 2 x33 + x53 + 2 x67 + 2 x68 + 2 x70 + x71 + 2 x73 - 2 x74 = 
     -1
 c9: - 2 x4 - x11 + 2 x21 + x22 - 2 x23 + x24 - 2 x33 - 2 x60 + x65 - x72 = 1
 c10: x3 - 2 x8 - x12 - x17 - x21 - 2 x26 - x27 + 2 x57 + x59 - 2 x66 = -1
 c11: 2 x3 + 2 x17 - x23 + x31 + 2 x45 + 2 x54 + x58 + 2 x62 + x63 + x67 = -1
 c12: x11 + x12 + 2 x20 + x33 - 2 x35 - 2 x50 + x60 + 2 x64 + 2 x67 + x71 = 0
 c13: x1 + x2 + x6 + 2 x13 - 2 x27 - x40 - x44 - x50 + x60 + x66 = 1
 c14: - 2 x2 - x8 - x25 + x28 + 2 x33 + 2 x35 - x38 - 2 x46 - x52 - x66 = 0

Bounds
 0 <= x0 <= 1
 0 <= x1 <= 1
 0 <= x2 <= 1
 0 <= x3 <= 1
 0 <= x4 <= 1
 0 <= x5 <= 1
 0 <= x6 <= 1
 0 <= x7 <= 1
 0 <= x8 <= 1
 0 <= x9 <= 1
 0 <= x10 <= 1
 0 <= x11 <= 1
 0 <= x12 <= 1
 0 <= x13 <= 1
 0 <= x14 <= 1
 0 <= x15 <= 1
 0 <= x16 <= 1
 0 <= x17 <= 1
 0 <= x18 <= 1
 0 <= x19 <= 1
 0 <= x20 <= 1
 0 <= x21 <= 1
 0 <= x22 <= 1
 0 <= x23 <= 1
 0 <= x24 <= 1
 0 <= x25 <= 1
 0 <= x26 <= 1
 0 <= x27 <= 1
 0 <= x28 <= 1
 0 <= x29 <= 1
 0 <= x30 <= 1
 0 <= x31 <= 1
 0 <= x32 <= 1
 0 <= x33 <= 1
 0 <= x34 <= 1
 0 <= x35 <= 1
 0 <= x36 <= 1
 0 <= x37 <= 1
 0 <= x38 <= 1
 0 <= x39 <= 1
 0 <= x40 <= 1
 0 <= x41 <= 1
 0 <= x42 <= 1
 0 <= x43 <= 1
 0 <= x44 <= 1
 0 <= x45 <= 1
 0 <= x46 <= 1
 0 <= x47 <= 1
 0 <= x48 <= 1
 0 <= x49 <= 1
 0 <= x50 <= 1
 0 <= x51 <= 1
 0 <= x52 <= 1
 0 <= x53 <= 1
 0 <= x54 <= 1
 0 <= x55 <= 1
 0 <= x56 <= 1
 0 <= x57 <= 1
 0 <= x58 <= 1
 0 <= x59 <= 1
 0 <= x60 <= 1
 0 <= x61 <= 1
 0 <= x62 <= 1
 0 <= x63 <= 1
 0 <= x64 <= 1
 0 <= x65 <= 1
 0 <= x66 <= 1
 0 <= x67 <= 1
 0 <= x68 <= 1
 0 <= x69 <= 1
 0 <= x70 <= 1
 0 <= x71 <= 1
 0 <= x72 <= 1
 0 <= x73 <= 1
 0 <= x74 <= 1

Binaries
 x0 x1 x2 x3 x4 x5 x6 x7 x8 x9 x10 x11 x12 x13 x14 x15 x16 x17 x18 x19 x20 x21
 x22 x23 x24 x25 x26 x27 x28 x29 x30 x31 x32 x33 x34 x35 x36 x37 x38 x39 x40 x41
 x42 x43 x44 x45 x46 x47 x48 x49 x50 x51 x52 x53 x54 x55 x56 x57 x58 x59 x60 x61
 x62 x63 x64 x65 x66 x67 x68 x69 x70 x71 x72 x73 x74
End
